Read MPS format model from file dat/rmp/4node_32768_20.mps
Reading time = 1.33 seconds
: 32828 rows, 158636 columns, 3636126 nonzeros
Gurobi Optimizer version 9.0.0 build v9.0.0rc2 (linux64)
Optimize a model with 32828 rows, 158636 columns and 3636126 nonzeros
Model fingerprint: 0x62935be0
Coefficient statistics:
  Matrix range     [2e-04, 2e+01]
  Objective range  [2e-03, 1e+04]
  Bounds range     [0e+00, 0e+00]
  RHS range        [1e+00, 8e+01]
Ordering time: 0.04s

Barrier statistics:
 AA' NZ     : 1.496e+06
 Factor NZ  : 1.869e+06 (roughly 100 MBytes of memory)
 Factor Ops : 1.166e+08 (less than 1 second per iteration)
 Threads    : 1

                  Objective                Residual
Iter       Primal          Dual         Primal    Dual     Compl     Time
   0   3.99198254e+07  0.00000000e+00  8.08e+04 2.40e+02  8.47e+04     1s
   1   1.38566165e+06 -1.30431701e+08  2.53e+03 1.81e+03  3.90e+03     1s
   2   1.12087600e+06 -1.27786061e+08  1.62e+03 2.07e+03  2.82e+03     1s
   3   4.73180216e+05 -1.08981444e+08  4.67e+02 1.05e+03  1.28e+03     2s
   4   2.14893635e+05 -2.18075595e+07  4.50e-09 3.04e+01  1.46e+02     2s
   5   1.98549079e+05 -6.28060340e+06  1.13e-09 8.18e+00  4.29e+01     2s
   6   1.79620284e+05 -1.23986679e+06  1.04e-09 1.51e+00  9.32e+00     3s
   7   1.41679918e+05 -7.33681608e+05  1.04e-09 9.41e-01  5.75e+00     3s
   8   1.12904067e+05 -4.02624092e+05  1.38e-09 5.55e-01  3.39e+00     3s
   9   5.46134006e+04 -2.19132378e+05  1.36e-09 3.23e-01  1.80e+00     3s
  10   1.49845253e+04 -5.16569972e+04  8.83e-10 7.09e-02  4.36e-01     4s
  11   1.44178623e+03 -1.97837154e+04  5.39e-08 2.33e-02  1.39e-01     4s
  12   1.37953206e+03 -1.79290734e+04  5.75e-08 2.15e-02  1.26e-01     4s
  13   8.51139338e+02 -1.14733302e+04  1.43e-07 1.23e-02  8.03e-02     5s
  14   7.12686040e+02 -1.11428687e+04  1.45e-07 1.19e-02  7.73e-02     5s
  15   1.84172630e+02 -8.72485925e+03  2.02e-07 8.70e-03  5.80e-02     5s
  16   4.34051259e+01 -5.98144327e+03  1.23e-07 5.20e-03  3.91e-02     5s
  17  -4.92278878e+01 -3.31641534e+03  1.37e-07 2.44e-03  2.11e-02     6s
  18  -2.82925850e+02 -3.04967001e+03  7.99e-08 2.18e-03  1.79e-02     6s
  19  -3.16405124e+02 -2.82190067e+03  9.56e-08 1.98e-03  1.62e-02     6s
  20  -3.01218962e+02 -6.27303973e+02  1.08e-07 1.75e-04  2.09e-03     7s
  21  -3.58907877e+02 -5.15773519e+02  2.40e-07 7.06e-05  1.00e-03     7s
  22  -3.88828309e+02 -4.85678593e+02  3.65e-07 3.81e-05  6.19e-04     7s
  23  -4.34835201e+02 -4.53817405e+02  2.23e-07 5.44e-06  1.21e-04     8s
  24  -4.42904298e+02 -4.49033297e+02  4.97e-07 1.67e-06  3.90e-05     8s
  25  -4.43293748e+02 -4.47961633e+02  1.07e-06 7.10e-07  2.96e-05     8s
  26  -4.44445985e+02 -4.47796367e+02  1.81e-06 5.76e-07  2.13e-05     8s
  27  -4.44543834e+02 -4.47761087e+02  1.90e-06 5.43e-07  2.04e-05     9s
  28  -4.44676118e+02 -4.47638228e+02  1.78e-06 4.70e-07  1.88e-05     9s
  29  -4.45171409e+02 -4.47355863e+02  1.69e-06 2.98e-07  1.38e-05     9s
  30  -4.45445959e+02 -4.47243941e+02  2.02e-06 1.79e-07  1.14e-05    10s
  31  -4.45724348e+02 -4.47065278e+02  1.94e-06 9.61e-08  8.48e-06    10s
  32  -4.45753139e+02 -4.47061500e+02  1.92e-06 9.43e-08  8.27e-06    11s
  33  -4.45866242e+02 -4.46981500e+02  1.86e-06 5.16e-08  7.04e-06    11s
  34  -4.45903124e+02 -4.46952615e+02  3.33e-06 3.76e-08  6.63e-06    12s
  35  -4.45908651e+02 -4.46934189e+02  7.33e-06 2.31e-08  6.47e-06    13s
  36  -4.45916218e+02 -4.46924663e+02  1.37e-05 1.45e-08  6.36e-06    13s
  37  -4.45930112e+02 -4.46907148e+02  4.25e-05 7.62e-09  6.17e-06    13s
  38  -4.45959883e+02 -4.46894477e+02  4.59e-05 5.54e-09  5.90e-06    14s
  39  -4.46089568e+02 -4.46868954e+02  1.22e-04 1.09e-09  4.92e-06    14s
  40  -4.46182984e+02 -4.46867473e+02  2.14e-04 9.20e-10  4.32e-06    14s
  41  -4.46297380e+02 -4.46865655e+02  1.59e-04 6.91e-10  3.58e-06    15s
  42  -4.46382096e+02 -4.46865769e+02  1.50e-04 1.97e-10  3.04e-06    15s
  43  -4.46537764e+02 -4.46864806e+02  8.66e-05 1.18e-10  2.06e-06    15s
  44  -4.46537101e+02 -4.46864569e+02  8.30e-05 1.17e-10  2.06e-06    16s
  45  -4.46549239e+02 -4.46871193e+02  8.26e-05 1.44e-10  2.02e-06    16s
  46  -4.46650820e+02 -4.46861745e+02  1.44e-04 5.34e-11  1.32e-06    16s
  47  -4.46722839e+02 -4.46861805e+02  1.90e-04 2.61e-11  8.70e-07    17s
  48  -4.46726306e+02 -4.46860427e+02  4.29e-04 1.93e-11  8.38e-07    17s
  49  -4.46750108e+02 -4.46859157e+02  7.86e-04 2.02e-11  6.65e-07    18s
  50  -4.46775348e+02 -4.46857818e+02  6.33e-04 1.46e-11  5.05e-07    18s
  51  -4.46784991e+02 -4.46856680e+02  5.34e-04 1.46e-11  4.41e-07    19s
  52  -4.46802465e+02 -4.46856427e+02  3.92e-04 1.46e-11  3.33e-07    19s
  53  -4.46814032e+02 -4.46856559e+02  3.11e-04 1.46e-11  2.59e-07    20s
  54  -4.46811293e+02 -4.46856069e+02  4.54e-04 1.46e-11  2.42e-07    20s
  55  -4.46817655e+02 -4.46855579e+02  3.95e-04 1.46e-11  2.05e-07    20s
  56  -4.46841911e+02 -4.46855385e+02  1.95e-04 1.46e-11  6.14e-08    21s
  57  -4.46836290e+02 -4.46855385e+02  3.88e-04 1.46e-11  6.14e-08    21s
  58  -4.46847842e+02 -4.46855274e+02  1.44e-04 2.91e-11  3.58e-08    21s
  59  -4.46852587e+02 -4.46855179e+02  1.91e-04 1.46e-11  1.12e-08    22s
  60  -4.46853070e+02 -4.46855179e+02  2.19e-04 1.46e-11  9.95e-09    22s
  61  -4.46854048e+02 -4.46855122e+02  2.43e-04 1.46e-11  6.64e-09    22s
  62  -4.46854304e+02 -4.46855115e+02  2.45e-04 1.46e-11  6.05e-09    23s
  63  -4.46854327e+02 -4.46855111e+02  2.44e-04 1.46e-11  5.94e-09    23s
  64  -4.46854330e+02 -4.46855106e+02  2.41e-04 1.46e-11  5.77e-09    23s
  65  -4.46854072e+02 -4.46855105e+02  2.08e-04 1.46e-11  4.98e-09    23s
  66  -4.46855229e+02 -4.46855098e+02  2.31e-04 1.46e-11  1.86e-09    24s
  67  -4.46854471e+02 -4.46855083e+02  2.08e-04 1.46e-11  9.43e-10    24s
  68  -4.46855212e+02 -4.46855069e+02  2.10e-04 1.46e-11  5.56e-10    25s
  69  -4.46855258e+02 -4.46855068e+02  2.13e-04 1.46e-11  4.71e-10    25s
  70  -4.46854903e+02 -4.46855068e+02  2.13e-04 1.46e-11  4.71e-10    25s
  71  -4.46854963e+02 -4.46855068e+02  2.13e-04 1.46e-11  4.60e-10    26s
  72  -4.46855072e+02 -4.46855067e+02  2.08e-04 1.46e-11  4.00e-10    26s
  73  -4.46855040e+02 -4.46855067e+02  2.10e-04 1.46e-11  3.98e-10    26s
  74  -4.46855095e+02 -4.46855066e+02  2.08e-04 2.91e-11  3.44e-10    27s
  75  -4.46855132e+02 -4.46855066e+02  2.09e-04 1.46e-11  3.42e-10    27s
  76  -4.46855285e+02 -4.46855066e+02  2.14e-04 1.46e-11  2.96e-10    27s
  77  -4.46854746e+02 -4.46855066e+02  2.27e-04 1.46e-11  2.76e-10    28s
  78  -4.46855271e+02 -4.46855065e+02  2.59e-04 1.46e-11  2.50e-10    28s
  79  -4.46854299e+02 -4.46855065e+02  3.11e-04 1.46e-11  1.68e-10    29s
  80  -4.46854112e+02 -4.46855065e+02  3.06e-04 1.46e-11  1.48e-10    29s
  81  -4.46854468e+02 -4.46855064e+02  4.17e-04 1.46e-11  1.42e-10    29s
  82  -4.46855163e+02 -4.46855064e+02  3.17e-04 2.91e-11  1.27e-10    30s
  83  -4.46854793e+02 -4.46855064e+02  3.21e-04 2.91e-11  1.27e-10    30s
  84  -4.46853254e+02 -4.46855064e+02  2.34e-04 2.91e-11  1.27e-10    30s
  85  -4.46853431e+02 -4.46855063e+02  2.45e-04 1.46e-11  1.13e-10    31s
  86  -4.46853453e+02 -4.46855063e+02  2.43e-04 1.46e-11  1.12e-10    31s
  87  -4.46853451e+02 -4.46855063e+02  2.43e-04 1.46e-11  1.12e-10    32s
  88  -4.46853577e+02 -4.46855062e+02  2.78e-04 1.46e-11  1.04e-10    32s
  89  -4.46853588e+02 -4.46855061e+02  2.62e-04 1.46e-11  9.69e-11    33s
  90  -4.46853781e+02 -4.46855063e+02  2.53e-04 1.46e-11  9.62e-11    33s
  91  -4.46854950e+02 -4.46855058e+02  1.59e-04 2.91e-11  7.74e-11    33s
  92  -4.46857305e+02 -4.46855054e+02  2.82e-04 1.46e-11  7.04e-11    34s
  93  -4.46855850e+02 -4.46855056e+02  2.23e-04 1.46e-11  4.89e-11    34s
  94  -4.46858490e+02 -4.46855056e+02  1.59e-04 1.46e-11  4.43e-11    35s
  95  -4.46858499e+02 -4.46855056e+02  2.86e-04 1.46e-11  3.69e-11    35s

Barrier performed 95 iterations in 34.98 seconds
Sub-optimal termination - objective -4.45866242e+02

Solve time: 34.987960361
Barrier iterations: 95
